tsp_instances/TSP20/instance67.tsp
NODE_COORD_SECTION
0 78 26
1 175 73
2 125 5
3 84 139
4 117 51
5 178 166
6 137 21
7 141 73
8 143 131
9 2 70
10 187 23
11 87 105
12 164 149
13 27 118
14 108 103
15 124 161
16 118 160
17 31 17
18 9 49
19 52 130
