tsp_instances/TSP20/instance67.opt.tour
TOUR_SECTION
1
3
7
11
2
8
5
12
15
9
13
6
16
17
4
20
14
10
19
18
-1